35 124 36 25 82 42 3 70 119 59 49 48 167 73 199 65 13 150 91 140 198 185 72 100 57 74 60 53 41 98 95 148 182 174 66 197 133 187 15 183 83 81 75 137 40 87 43 147 94 154 161 109 152 178 189 11 122 118 142 184 28 139 126 166 169 127 179 12 45 160 27 191 188 120 111 51 129 144 121 39 55 172 123 173 62 156 138 110 52 101 5 14 8 2 38 76 50 168 99 149 78 64 186 4 136 33 21 37 164 105 163 84 86 113 23 153 47 63 180 176 165 177 143 77 85 17 24 103 193 69 115 114 56 146 22 175 97 196 106 145 26 117 108 194 88 131 190 79 18 134 89 7 10 80 9 195 54 19 181 0 170 132 20 116 46 158 30 151 29 96 1 67 32 135 92 155 31 125 104 141 34 171 6 102 107 128 90 58 162 112 159 130 61 44 68 192 16 93 157 71